
Gurobi 12.0.3 (linux64) logging started Fri Mar 27 14:13:39 2026

Set parameter LogFile to value "/home/solar-wind/WT_Solar_results_bigM100000_thread4/case24_ieee_rts_theta0.15_epsilon0.1_gurobi_seed30000_num_gen38_N_WDR200_load_scaling_factor1_EIFICA_T24_num_Solar5_num_WT10.txt"
Gurobi Optimizer version 12.0.3 build v12.0.3rc0 (linux64 - "Ubuntu 22.04.5 LTS")

CPU model: Intel(R) Xeon(R) Platinum 8378A CPU @ 3.00GHz, instruction set [SSE2|AVX|AVX2|AVX512]
Thread count: 32 physical cores, 64 logical processors, using up to 4 threads

Non-default parameters:
TimeLimit  14400
MIPGap  0.001
Seed  30000
Threads  4

Academic license 2721591 - for non-commercial use only - registered to fa___@mails.neu.edu.cn
Optimize a model with 624388 rows, 2025 columns and 51044968 nonzeros
Model fingerprint: 0x5d7937d6
Model has 912 quadratic objective terms
Coefficient statistics:
  Matrix range     [3e-07, 7e+01]
  Objective range  [2e+01, 6e+01]
  QObjective range [4e-03, 2e-02]
  Bounds range     [0e+00, 0e+00]
  RHS range        [5e-02, 1e+03]
Presolve removed 436115 rows and 0 columns
Presolve time: 5.42s
Presolved: 188273 rows, 2899 columns, 4109836 nonzeros
Presolved model has 912 quadratic objective terms
Elapsed ordering time = 18s
Elapsed ordering time = 20s
Ordering time: 31.93s
Elapsed ordering time = 32s
Elapsed ordering time = 36s
Elapsed ordering time = 42s
Elapsed ordering time = 47s
Elapsed ordering time = 52s
Elapsed ordering time = 57s
Ordering time: 61.52s

Barrier statistics:
 Dense cols : 993
 AA' NZ     : 2.275e+08
 Factor NZ  : 1.223e+09 (roughly 10.0 GB of memory)
 Factor Ops : 2.264e+13 (roughly 120 seconds per iteration)
 Threads    : 4

                  Objective                Residual
Iter       Primal          Dual         Primal    Dual     Compl     Time
   0   5.56010595e+08 -2.96754833e+08  3.75e+04 9.92e+02  9.91e+05   166s
   1   5.20521680e+08 -2.64387871e+08  3.59e+04 9.49e+02  9.48e+05   166s
   2   5.15072252e+08 -3.27228807e+08  3.57e+04 9.42e+02  9.44e+05   167s
   3   4.78246822e+08 -4.14393757e+08  3.40e+04 8.96e+02  9.17e+05   167s
   4   4.21114445e+08 -4.75892433e+08  3.13e+04 8.21e+02  8.66e+05   167s
   5   3.66071810e+08 -5.19978455e+08  2.86e+04 7.45e+02  8.12e+05   167s
   6   3.15804640e+08 -5.87565521e+08  2.59e+04 6.70e+02  7.80e+05   167s
   7   2.85203267e+08 -5.98447224e+08  2.41e+04 6.22e+02  7.25e+05   168s
   8   2.49802275e+08 -6.48685167e+08  2.19e+04 5.64e+02  6.98e+05   168s
   9   2.22419089e+08 -6.66765635e+08  2.02e+04 5.17e+02  6.41e+05   168s
  10   1.96495994e+08 -6.84901326e+08  1.84e+04 4.71e+02  5.84e+05   168s
  11   1.73944159e+08 -6.98543435e+08  1.68e+04 4.28e+02  5.33e+05   168s
  12   1.55580092e+08 -7.15649120e+08  1.54e+04 3.92e+02  4.88e+05   168s
  13   1.38199272e+08 -7.34970731e+08  1.41e+04 3.56e+02  4.44e+05   168s
  14   1.19683283e+08 -7.56909645e+08  1.26e+04 3.16e+02  3.96e+05   169s
  15   1.04232387e+08 -7.75401373e+08  1.13e+04 2.82e+02  3.54e+05   169s
  16   8.98782807e+07 -7.94233241e+08  1.00e+04 2.49e+02  3.13e+05   169s
  17   7.67338753e+07 -8.14180866e+08  8.77e+03 2.17e+02  2.74e+05   169s
  18   6.47693893e+07 -8.35464204e+08  7.61e+03 1.87e+02  2.37e+05   169s
  19   5.37154062e+07 -8.55598395e+08  6.47e+03 1.58e+02  2.01e+05   169s
  20   4.13664792e+07 -8.81204988e+08  5.14e+03 1.24e+02  1.60e+05   169s
  21   3.25673031e+07 -8.93521769e+08  4.13e+03 9.90e+01  1.29e+05   169s
  22   2.16897831e+07 -8.98287571e+08  2.81e+03 6.70e+01  8.90e+04   170s
  23   1.48441845e+07 -8.89220182e+08  2.49e+03 4.60e+01  6.56e+04   170s
  24   5.17670176e+06 -8.20869094e+08  1.82e+03 1.56e+01  2.87e+04   170s
  25   4.41927644e+06 -7.69693838e+08  1.53e+03 1.31e+01  2.42e+04   170s
  26   3.81428172e+06 -7.21068181e+08  1.30e+03 1.11e+01  2.06e+04   170s
  27   3.13070839e+06 -6.52843372e+08  1.02e+03 8.80e+00  1.65e+04   170s
  28   2.49687302e+06 -5.80947012e+08  7.76e+02 6.72e+00  1.28e+04   170s
  29   1.98478175e+06 -5.10174736e+08  5.81e+02 5.01e+00  9.66e+03   170s
  30   1.63979862e+06 -4.51883595e+08  4.41e+02 3.83e+00  7.48e+03   171s
  31   1.18387919e+06 -3.99616459e+08  2.50e+02 2.18e+00  4.93e+03   171s
  32   9.83706221e+05 -3.52250022e+08  1.56e+02 1.38e+00  3.54e+03   171s
  33   8.76640384e+05 -2.87784284e+08  1.07e+02 9.44e-01  2.51e+03   171s
  34   7.72186972e+05 -2.32656610e+08  6.05e+01 5.29e-01  1.71e+03   171s
  35   7.37370234e+05 -1.94308452e+08  4.18e+01 3.67e-01  1.32e+03   172s
  36   7.20142540e+05 -1.68460557e+08  3.19e+01 2.80e-01  1.09e+03   172s
  37   7.13112556e+05 -1.55459733e+08  2.73e+01 2.40e-01  9.80e+02   173s
  38   7.03455875e+05 -1.33186532e+08  2.04e+01 1.78e-01  8.09e+02   173s
  39   7.00702527e+05 -1.24329563e+08  1.79e+01 1.56e-01  7.45e+02   174s
  40   6.98007984e+05 -1.13743002e+08  1.51e+01 1.31e-01  6.73e+02   175s
  41   6.94095528e+05 -8.53787299e+07  9.46e+00 8.18e-02  4.90e+02   175s
  42   6.90381690e+05 -5.99445288e+07  4.29e+00 3.76e-02  3.34e+02   176s
  43   6.88898484e+05 -3.39621908e+07  2.34e+00 1.59e-02  1.85e+02   177s
  44   6.87005178e+05 -1.60971686e+07  1.31e+00 6.14e-03  8.82e+01   180s
  45   6.83849512e+05 -3.47161928e+06  3.40e-01 1.01e-03  2.17e+01   184s
  46   6.67753289e+05  1.89915872e+05  3.48e-02 4.32e-03  2.49e+00   252s
  47   6.20840865e+05  4.89265789e+05  4.63e-03 5.75e-04  6.85e-01   320s
  48   6.03093139e+05  5.62240358e+05  1.06e-03 1.33e-04  2.13e-01   624s
  49   5.97111545e+05  5.78839263e+05  2.05e-04 2.55e-05  9.52e-02  1359s
  50   5.95134856e+05  5.87277974e+05  2.86e-05 3.54e-06  4.09e-02  1450s
  51   5.94321627e+05  5.91176252e+05  4.14e-06 5.14e-07  1.64e-02  1543s
  52   5.93942071e+05  5.92956021e+05  5.95e-07 7.39e-08  5.13e-03  1636s
  53   5.93821071e+05  5.93527806e+05  3.64e-08 4.50e-09  1.53e-03  1730s
  54   5.93773570e+05  5.93754411e+05  1.14e-09 4.92e-11  9.98e-05  1822s
  55   5.93771624e+05  5.93762984e+05  3.09e-09 3.00e-12  4.50e-05  1929s
  56   5.93770149e+05  5.93770132e+05  1.32e-08 9.54e-11  8.51e-08  2020s
  57   5.93770147e+05  5.93770138e+05  1.08e-06 1.49e-10  5.13e-08  2110s
  58   5.93770147e+05  5.93770142e+05  8.22e-07 9.50e-11  2.36e-08  2203s
  59   5.93770146e+05  5.93770144e+05  1.24e-06 4.65e-11  1.16e-08  2294s
  60   5.93770146e+05  5.93770144e+05  9.90e-07 2.03e-10  9.52e-09  2388s

Barrier solved model in 60 iterations and 2387.55 seconds (1881.32 work units)
Optimal objective 5.93770146e+05

